(set-info :smt-lib-version 2.6)
(set-info :category "crafted")
(set-logic QF_FF)
(define-sort FF0 () (_ FiniteField 52435875175126190479447740508185965837690552500527637822603658699938581184513))
(declare-fun out_alt () FF0)
(declare-fun _88_alt () FF0)
(declare-fun _87_alt () FF0)
(declare-fun _48_alt () FF0)
(declare-fun _47_alt () FF0)
(declare-fun _86_alt () FF0)
(declare-fun _66_alt () FF0)
(declare-fun _85_alt () FF0)
(declare-fun _64_alt () FF0)
(declare-fun _84_alt () FF0)
(declare-fun _71_alt () FF0)
(declare-fun _83_alt () FF0)
(declare-fun _15_alt () FF0)
(declare-fun _82_alt () FF0)
(declare-fun _78_alt () FF0)
(declare-fun _77_alt () FF0)
(declare-fun _80_alt () FF0)
(declare-fun _34_alt () FF0)
(declare-fun _68_alt () FF0)
(declare-fun _24_alt () FF0)
(declare-fun _57_alt () FF0)
(declare-fun _56_alt () FF0)
(declare-fun _38_alt () FF0)
(declare-fun _73_alt () FF0)
(declare-fun _51_alt () FF0)
(declare-fun _22_alt () FF0)
(declare-fun _70_alt () FF0)
(declare-fun _50_alt () FF0)
(declare-fun _37_alt () FF0)
(declare-fun _65_alt () FF0)
(declare-fun _63_alt () FF0)
(declare-fun _1_alt () FF0)
(declare-fun _62_alt () FF0)
(declare-fun _61_alt () FF0)
(declare-fun _41_alt () FF0)
(declare-fun _60_alt () FF0)
(declare-fun _59_alt () FF0)
(declare-fun _43_alt () FF0)
(declare-fun _33_alt () FF0)
(declare-fun _20_alt () FF0)
(declare-fun _19_alt () FF0)
(declare-fun _3_alt () FF0)
(declare-fun _29_alt () FF0)
(declare-fun _28_alt () FF0)
(declare-fun _40_alt () FF0)
(declare-fun _7_alt () FF0)
(declare-fun _13_alt () FF0)
(declare-fun _12_alt () FF0)
(declare-fun _0_alt () FF0)
(declare-fun _32_alt () FF0)
(declare-fun _2_alt () FF0)
(declare-fun _31_alt () FF0)
(declare-fun _6_alt () FF0)
(declare-fun _23_alt () FF0)
(declare-fun _5_alt () FF0)
(declare-fun _4_alt () FF0)
(declare-fun out () FF0)
(declare-fun _88 () FF0)
(declare-fun _87 () FF0)
(declare-fun _48 () FF0)
(declare-fun _47 () FF0)
(declare-fun _86 () FF0)
(declare-fun _66 () FF0)
(declare-fun _85 () FF0)
(declare-fun _64 () FF0)
(declare-fun _84 () FF0)
(declare-fun _71 () FF0)
(declare-fun _83 () FF0)
(declare-fun _15 () FF0)
(declare-fun _82 () FF0)
(declare-fun _78 () FF0)
(declare-fun _77 () FF0)
(declare-fun _80 () FF0)
(declare-fun _34 () FF0)
(declare-fun _68 () FF0)
(declare-fun _24 () FF0)
(declare-fun _57 () FF0)
(declare-fun _56 () FF0)
(declare-fun _38 () FF0)
(declare-fun _73 () FF0)
(declare-fun _51 () FF0)
(declare-fun _22 () FF0)
(declare-fun _70 () FF0)
(declare-fun _50 () FF0)
(declare-fun _37 () FF0)
(declare-fun _65 () FF0)
(declare-fun _63 () FF0)
(declare-fun _1 () FF0)
(declare-fun _62 () FF0)
(declare-fun _61 () FF0)
(declare-fun _41 () FF0)
(declare-fun _60 () FF0)
(declare-fun _59 () FF0)
(declare-fun _43 () FF0)
(declare-fun _33 () FF0)
(declare-fun _20 () FF0)
(declare-fun _19 () FF0)
(declare-fun _3 () FF0)
(declare-fun _29 () FF0)
(declare-fun _28 () FF0)
(declare-fun _40 () FF0)
(declare-fun _7 () FF0)
(declare-fun _13 () FF0)
(declare-fun _12 () FF0)
(declare-fun _0 () FF0)
(declare-fun _32 () FF0)
(declare-fun _2 () FF0)
(declare-fun _31 () FF0)
(declare-fun _6 () FF0)
(declare-fun _23 () FF0)
(declare-fun _5 () FF0)
(declare-fun _4 () FF0)
(assert 
  (let ((let0 out_alt))
  (let ((let1 _88_alt))
  (let ((let2 (= let1 let0)))
  (let ((let3 (as ff52435875175126190479447740508185965837690552500527637822603658699938581184512 FF0)))
  (let ((let4 (ff.mul let1 let3)))
  (let ((let5 _87_alt))
  (let ((let6 _48_alt))
  (let ((let7 _47_alt))
  (let ((let8 (ff.add let7 let6 let5 let4)))
  (let ((let9 (ff.add let7 let6)))
  (let ((let10 (ff.mul let5 let9)))
  (let ((let11 (= let10 let8)))
  (let ((let12 (ff.mul let5 let3)))
  (let ((let13 _86_alt))
  (let ((let14 _66_alt))
  (let ((let15 (ff.add let14 let13 let12)))
  (let ((let16 (ff.mul let13 let14)))
  (let ((let17 (= let16 let15)))
  (let ((let18 (as ff1 FF0)))
  (let ((let19 (ff.mul let13 let3)))
  (let ((let20 _85_alt))
  (let ((let21 _64_alt))
  (let ((let22 (ff.mul let21 let3)))
  (let ((let23 (ff.add let22 let20 let19 let18)))
  (let ((let24 (ff.add let22 let18)))
  (let ((let25 (ff.mul let20 let24)))
  (let ((let26 (= let25 let23)))
  (let ((let27 (ff.mul let20 let3)))
  (let ((let28 _84_alt))
  (let ((let29 _71_alt))
  (let ((let30 (ff.add let29 let28 let27)))
  (let ((let31 (ff.mul let28 let29)))
  (let ((let32 (= let31 let30)))
  (let ((let33 (ff.mul let28 let3)))
  (let ((let34 _83_alt))
  (let ((let35 _15_alt))
  (let ((let36 (ff.add let35 let34 let33)))
  (let ((let37 (ff.mul let34 let35)))
  (let ((let38 (= let37 let36)))
  (let ((let39 (ff.mul let34 let3)))
  (let ((let40 _82_alt))
  (let ((let41 _78_alt))
  (let ((let42 _77_alt))
  (let ((let43 (ff.add let42 let41 let40 let39)))
  (let ((let44 (ff.add let42 let41)))
  (let ((let45 (ff.mul let40 let44)))
  (let ((let46 (= let45 let43)))
  (let ((let47 (ff.mul let40 let3)))
  (let ((let48 _80_alt))
  (let ((let49 _34_alt))
  (let ((let50 (ff.mul let49 let3)))
  (let ((let51 (ff.add let50 let48 let47 let18)))
  (let ((let52 (ff.add let50 let18)))
  (let ((let53 (ff.mul let52 let48)))
  (let ((let54 (= let53 let51)))
  (let ((let55 (ff.mul let48 let3)))
  (let ((let56 _68_alt))
  (let ((let57 (ff.mul let56 let3)))
  (let ((let58 _24_alt))
  (let ((let59 (ff.add let58 let57 let55 let18)))
  (let ((let60 (ff.add let57 let18)))
  (let ((let61 (ff.mul let60 let58)))
  (let ((let62 (= let61 let59)))
  (let ((let63 _57_alt))
  (let ((let64 _56_alt))
  (let ((let65 (ff.add let64 let63)))
  (let ((let66 _38_alt))
  (let ((let67 (ff.mul let66 let65)))
  (let ((let68 (= let67 let41)))
  (let ((let69 _73_alt))
  (let ((let70 (ff.mul let66 let3)))
  (let ((let71 (ff.add let70 let18)))
  (let ((let72 (ff.mul let71 let69)))
  (let ((let73 (= let72 let42)))
  (let ((let74 (as ff2 FF0)))
  (let ((let75 (ff.mul let69 let3)))
  (let ((let76 _51_alt))
  (let ((let77 (ff.mul let76 let3)))
  (let ((let78 _22_alt))
  (let ((let79 (ff.mul let78 let3)))
  (let ((let80 (ff.add let79 let77 let75 let74)))
  (let ((let81 (ff.add let77 let18)))
  (let ((let82 (ff.add let79 let18)))
  (let ((let83 (ff.mul let82 let81)))
  (let ((let84 (= let83 let80)))
  (let ((let85 (ff.mul let29 let3)))
  (let ((let86 _70_alt))
  (let ((let87 _50_alt))
  (let ((let88 (ff.add let87 let86 let85)))
  (let ((let89 (ff.mul let86 let87)))
  (let ((let90 (= let89 let88)))
  (let ((let91 (ff.mul let86 let3)))
  (let ((let92 (ff.mul let35 let3)))
  (let ((let93 (ff.add let92 let56 let91 let18)))
  (let ((let94 (ff.add let92 let18)))
  (let ((let95 (ff.mul let94 let56)))
  (let ((let96 (= let95 let93)))
  (let ((let97 _37_alt))
  (let ((let98 (ff.add let97 let66 let57)))
  (let ((let99 (ff.mul let66 let97)))
  (let ((let100 (= let99 let98)))
  (let ((let101 _65_alt))
  (let ((let102 (ff.mul let101 let21)))
  (let ((let103 (= let102 let14)))
  (let ((let104 (ff.mul let21 let78)))
  (let ((let105 (= let104 let101)))
  (let ((let106 _63_alt))
  (let ((let107 _1_alt))
  (let ((let108 (ff.add let107 let106 let22)))
  (let ((let109 (ff.mul let106 let107)))
  (let ((let110 (= let109 let108)))
  (let ((let111 (ff.mul let106 let3)))
  (let ((let112 _62_alt))
  (let ((let113 (ff.add let87 let112 let111)))
  (let ((let114 (ff.mul let112 let87)))
  (let ((let115 (= let114 let113)))
  (let ((let116 (ff.mul let112 let3)))
  (let ((let117 _61_alt))
  (let ((let118 _41_alt))
  (let ((let119 (ff.mul let118 let3)))
  (let ((let120 (ff.add let119 let117 let116 let18)))
  (let ((let121 (ff.add let119 let18)))
  (let ((let122 (ff.mul let117 let121)))
  (let ((let123 (= let122 let120)))
  (let ((let124 (ff.mul let117 let3)))
  (let ((let125 _60_alt))
  (let ((let126 (ff.add let119 let125 let124 let18)))
  (let ((let127 (ff.mul let125 let121)))
  (let ((let128 (= let127 let126)))
  (let ((let129 (ff.mul let125 let3)))
  (let ((let130 _59_alt))
  (let ((let131 (ff.add let50 let130 let129 let18)))
  (let ((let132 (ff.mul let130 let52)))
  (let ((let133 (= let132 let131)))
  (let ((let134 (ff.mul let130 let3)))
  (let ((let135 _43_alt))
  (let ((let136 (ff.add let135 let64 let63 let134)))
  (let ((let137 (ff.mul let65 let135)))
  (let ((let138 (= let137 let136)))
  (let ((let139 _33_alt))
  (let ((let140 (ff.mul let87 let3)))
  (let ((let141 (ff.add let140 let18)))
  (let ((let142 (ff.mul let141 let139)))
  (let ((let143 (= let142 let63)))
  (let ((let144 (ff.mul let87 let81)))
  (let ((let145 (= let144 let64)))
  (let ((let146 _20_alt))
  (let ((let147 _19_alt))
  (let ((let148 _3_alt))
  (let ((let149 (ff.mul let148 let3)))
  (let ((let150 (ff.add let149 let147 let146)))
  (let ((let151 (ff.mul let150 let150)))
  (let ((let152 (= let151 let76)))
  (let ((let153 _29_alt))
  (let ((let154 (ff.mul let153 let3)))
  (let ((let155 _28_alt))
  (let ((let156 (ff.mul let155 let3)))
  (let ((let157 (ff.add let156 let154 let139 let140 let18)))
  (let ((let158 (ff.add let156 let154 let18)))
  (let ((let159 (ff.mul let158 let139)))
  (let ((let160 (= let159 let157)))
  (let ((let161 (ff.mul let135 let3)))
  (let ((let162 (ff.add let161 let18)))
  (let ((let163 (ff.mul let162 let97)))
  (let ((let164 (= let163 let6)))
  (let ((let165 (ff.add let50 let97 let161 let18)))
  (let ((let166 (ff.mul let52 let97)))
  (let ((let167 (= let166 let165)))
  (let ((let168 _40_alt))
  (let ((let169 _7_alt))
  (let ((let170 (ff.add let169 let168 let3)))
  (let ((let171 (ff.mul let170 let170)))
  (let ((let172 (= let171 let118)))
  (let ((let173 (ff.mul let168 let3)))
  (let ((let174 _13_alt))
  (let ((let175 _12_alt))
  (let ((let176 (ff.add let175 let174 let66 let173)))
  (let ((let177 (ff.add let175 let174)))
  (let ((let178 (ff.mul let66 let177)))
  (let ((let179 (= let178 let176)))
  (let ((let180 (ff.mul let169 let3)))
  (let ((let181 _0_alt))
  (let ((let182 (ff.mul let181 let3)))
  (let ((let183 (ff.add let182 let180 let18)))
  (let ((let184 (ff.mul let183 let183)))
  (let ((let185 (= let184 let66)))
  (let ((let186 (ff.mul let97 let3)))
  (let ((let187 (ff.add let78 let50 let186 let18)))
  (let ((let188 (ff.mul let52 let78)))
  (let ((let189 (= let188 let187)))
  (let ((let190 (ff.add let92 let139)))
  (let ((let191 (ff.mul let190 let190)))
  (let ((let192 (= let191 let49)))
  (let ((let193 (ff.mul let139 let3)))
  (let ((let194 _32_alt))
  (let ((let195 _2_alt))
  (let ((let196 (ff.add let195 let194 let193)))
  (let ((let197 (ff.mul let194 let195)))
  (let ((let198 (= let197 let196)))
  (let ((let199 (ff.mul let194 let3)))
  (let ((let200 _31_alt))
  (let ((let201 (ff.add let58 let200 let199)))
  (let ((let202 (ff.mul let200 let58)))
  (let ((let203 (= let202 let201)))
  (let ((let204 (ff.mul let200 let3)))
  (let ((let205 (ff.mul let153 let74)))
  (let ((let206 (ff.mul let155 let74)))
  (let ((let207 (ff.add let206 let205 let204)))
  (let ((let208 (ff.add let155 let153)))
  (let ((let209 (ff.mul let208 let208)))
  (let ((let210 (= let209 let207)))
  (let ((let211 (ff.mul let58 let3)))
  (let ((let212 (ff.add let211 let18)))
  (let ((let213 (ff.mul let212 let107)))
  (let ((let214 (= let213 let153)))
  (let ((let215 _6_alt))
  (let ((let216 (ff.mul let58 let215)))
  (let ((let217 (= let216 let155)))
  (let ((let218 _23_alt))
  (let ((let219 (ff.add let181 let218 let211)))
  (let ((let220 (ff.mul let218 let181)))
  (let ((let221 (= let220 let219)))
  (let ((let222 (ff.mul let218 let3)))
  (let ((let223 (ff.add let148 let147 let146 let222)))
  (let ((let224 (ff.add let147 let146)))
  (let ((let225 (ff.mul let224 let148)))
  (let ((let226 (= let225 let223)))
  (let ((let227 (ff.mul let146 let3)))
  (let ((let228 (ff.mul let147 let3)))
  (let ((let229 (ff.add let148 let228 let227 let79 let18)))
  (let ((let230 (ff.add let228 let227 let18)))
  (let ((let231 (ff.mul let230 let148)))
  (let ((let232 (= let231 let229)))
  (let ((let233 (ff.mul let94 let35)))
  (let ((let234 (= let233 let146)))
  (let ((let235 (ff.mul let35 let177)))
  (let ((let236 (= let235 let147)))
  (let ((let237 (ff.add let180 let175 let174 let92 let18)))
  (let ((let238 (ff.add let180 let18)))
  (let ((let239 (ff.mul let177 let238)))
  (let ((let240 (= let239 let237)))
  (let ((let241 (ff.add let149 let18)))
  (let ((let242 (ff.mul let241 let195)))
  (let ((let243 (= let242 let174)))
  (let ((let244 (ff.mul let148 let215)))
  (let ((let245 (= let244 let175)))
  (let ((let246 (ff.mul let215 let3)))
  (let ((let247 (ff.add let107 let246)))
  (let ((let248 (ff.mul let247 let247)))
  (let ((let249 (= let248 let169)))
  (let ((let250 _5_alt))
  (let ((let251 (ff.mul let250 let181)))
  (let ((let252 (= let251 let215)))
  (let ((let253 _4_alt))
  (let ((let254 (ff.mul let253 let195)))
  (let ((let255 (= let254 let250)))
  (let ((let256 (ff.mul let107 let181)))
  (let ((let257 (= let256 let253)))
  (let ((let258 (ff.mul let148 let148)))
  (let ((let259 (= let258 let148)))
  (let ((let260 (ff.mul let195 let195)))
  (let ((let261 (= let260 let195)))
  (let ((let262 (ff.mul let107 let107)))
  (let ((let263 (= let262 let107)))
  (let ((let264 (ff.mul let181 let181)))
  (let ((let265 (= let264 let181)))
  (let ((let266 (and let265 let263 let261 let259 let257 let255 let252 let249 let245 let243 let240 let236 let234 let232 let226 let221 let217 let214 let210 let203 let198 let192 let189 let185 let179 let172 let167 let164 let160 let152 let145 let143 let138 let133 let128 let123 let115 let110 let105 let103 let100 let96 let90 let84 let73 let68 let62 let54 let46 let38 let32 let26 let17 let11 let2)))
  (let ((let267 out))
  (let ((let268 _88))
  (let ((let269 (= let268 let267)))
  (let ((let270 (ff.mul let268 let3)))
  (let ((let271 _87))
  (let ((let272 _48))
  (let ((let273 _47))
  (let ((let274 (ff.add let273 let272 let271 let270)))
  (let ((let275 (ff.add let273 let272)))
  (let ((let276 (ff.mul let271 let275)))
  (let ((let277 (= let276 let274)))
  (let ((let278 (ff.mul let271 let3)))
  (let ((let279 _86))
  (let ((let280 _66))
  (let ((let281 (ff.add let280 let279 let278)))
  (let ((let282 (ff.mul let279 let280)))
  (let ((let283 (= let282 let281)))
  (let ((let284 (ff.mul let279 let3)))
  (let ((let285 _85))
  (let ((let286 _64))
  (let ((let287 (ff.mul let286 let3)))
  (let ((let288 (ff.add let287 let285 let284 let18)))
  (let ((let289 (ff.add let287 let18)))
  (let ((let290 (ff.mul let285 let289)))
  (let ((let291 (= let290 let288)))
  (let ((let292 (ff.mul let285 let3)))
  (let ((let293 _84))
  (let ((let294 _71))
  (let ((let295 (ff.add let294 let293 let292)))
  (let ((let296 (ff.mul let293 let294)))
  (let ((let297 (= let296 let295)))
  (let ((let298 (ff.mul let293 let3)))
  (let ((let299 _83))
  (let ((let300 _15))
  (let ((let301 (ff.add let300 let299 let298)))
  (let ((let302 (ff.mul let299 let300)))
  (let ((let303 (= let302 let301)))
  (let ((let304 (ff.mul let299 let3)))
  (let ((let305 _82))
  (let ((let306 _78))
  (let ((let307 _77))
  (let ((let308 (ff.add let307 let306 let305 let304)))
  (let ((let309 (ff.add let307 let306)))
  (let ((let310 (ff.mul let305 let309)))
  (let ((let311 (= let310 let308)))
  (let ((let312 (ff.mul let305 let3)))
  (let ((let313 _80))
  (let ((let314 _34))
  (let ((let315 (ff.mul let314 let3)))
  (let ((let316 (ff.add let315 let313 let312 let18)))
  (let ((let317 (ff.add let315 let18)))
  (let ((let318 (ff.mul let317 let313)))
  (let ((let319 (= let318 let316)))
  (let ((let320 (ff.mul let313 let3)))
  (let ((let321 _68))
  (let ((let322 (ff.mul let321 let3)))
  (let ((let323 _24))
  (let ((let324 (ff.add let323 let322 let320 let18)))
  (let ((let325 (ff.add let322 let18)))
  (let ((let326 (ff.mul let325 let323)))
  (let ((let327 (= let326 let324)))
  (let ((let328 _57))
  (let ((let329 _56))
  (let ((let330 (ff.add let329 let328)))
  (let ((let331 _38))
  (let ((let332 (ff.mul let331 let330)))
  (let ((let333 (= let332 let306)))
  (let ((let334 _73))
  (let ((let335 (ff.mul let331 let3)))
  (let ((let336 (ff.add let335 let18)))
  (let ((let337 (ff.mul let336 let334)))
  (let ((let338 (= let337 let307)))
  (let ((let339 (ff.mul let334 let3)))
  (let ((let340 _51))
  (let ((let341 (ff.mul let340 let3)))
  (let ((let342 _22))
  (let ((let343 (ff.mul let342 let3)))
  (let ((let344 (ff.add let343 let341 let339 let74)))
  (let ((let345 (ff.add let341 let18)))
  (let ((let346 (ff.add let343 let18)))
  (let ((let347 (ff.mul let346 let345)))
  (let ((let348 (= let347 let344)))
  (let ((let349 (ff.mul let294 let3)))
  (let ((let350 _70))
  (let ((let351 _50))
  (let ((let352 (ff.add let351 let350 let349)))
  (let ((let353 (ff.mul let350 let351)))
  (let ((let354 (= let353 let352)))
  (let ((let355 (ff.mul let350 let3)))
  (let ((let356 (ff.mul let300 let3)))
  (let ((let357 (ff.add let356 let321 let355 let18)))
  (let ((let358 (ff.add let356 let18)))
  (let ((let359 (ff.mul let358 let321)))
  (let ((let360 (= let359 let357)))
  (let ((let361 _37))
  (let ((let362 (ff.add let361 let331 let322)))
  (let ((let363 (ff.mul let331 let361)))
  (let ((let364 (= let363 let362)))
  (let ((let365 _65))
  (let ((let366 (ff.mul let365 let286)))
  (let ((let367 (= let366 let280)))
  (let ((let368 (ff.mul let286 let342)))
  (let ((let369 (= let368 let365)))
  (let ((let370 _63))
  (let ((let371 _1))
  (let ((let372 (ff.add let371 let370 let287)))
  (let ((let373 (ff.mul let370 let371)))
  (let ((let374 (= let373 let372)))
  (let ((let375 (ff.mul let370 let3)))
  (let ((let376 _62))
  (let ((let377 (ff.add let351 let376 let375)))
  (let ((let378 (ff.mul let376 let351)))
  (let ((let379 (= let378 let377)))
  (let ((let380 (ff.mul let376 let3)))
  (let ((let381 _61))
  (let ((let382 _41))
  (let ((let383 (ff.mul let382 let3)))
  (let ((let384 (ff.add let383 let381 let380 let18)))
  (let ((let385 (ff.add let383 let18)))
  (let ((let386 (ff.mul let381 let385)))
  (let ((let387 (= let386 let384)))
  (let ((let388 (ff.mul let381 let3)))
  (let ((let389 _60))
  (let ((let390 (ff.add let383 let389 let388 let18)))
  (let ((let391 (ff.mul let389 let385)))
  (let ((let392 (= let391 let390)))
  (let ((let393 (ff.mul let389 let3)))
  (let ((let394 _59))
  (let ((let395 (ff.add let315 let394 let393 let18)))
  (let ((let396 (ff.mul let394 let317)))
  (let ((let397 (= let396 let395)))
  (let ((let398 (ff.mul let394 let3)))
  (let ((let399 _43))
  (let ((let400 (ff.add let399 let329 let328 let398)))
  (let ((let401 (ff.mul let330 let399)))
  (let ((let402 (= let401 let400)))
  (let ((let403 _33))
  (let ((let404 (ff.mul let351 let3)))
  (let ((let405 (ff.add let404 let18)))
  (let ((let406 (ff.mul let405 let403)))
  (let ((let407 (= let406 let328)))
  (let ((let408 (ff.mul let351 let345)))
  (let ((let409 (= let408 let329)))
  (let ((let410 _20))
  (let ((let411 _19))
  (let ((let412 _3))
  (let ((let413 (ff.mul let412 let3)))
  (let ((let414 (ff.add let413 let411 let410)))
  (let ((let415 (ff.mul let414 let414)))
  (let ((let416 (= let415 let340)))
  (let ((let417 _29))
  (let ((let418 (ff.mul let417 let3)))
  (let ((let419 _28))
  (let ((let420 (ff.mul let419 let3)))
  (let ((let421 (ff.add let420 let418 let403 let404 let18)))
  (let ((let422 (ff.add let420 let418 let18)))
  (let ((let423 (ff.mul let422 let403)))
  (let ((let424 (= let423 let421)))
  (let ((let425 (ff.mul let399 let3)))
  (let ((let426 (ff.add let425 let18)))
  (let ((let427 (ff.mul let426 let361)))
  (let ((let428 (= let427 let272)))
  (let ((let429 (ff.add let315 let361 let425 let18)))
  (let ((let430 (ff.mul let317 let361)))
  (let ((let431 (= let430 let429)))
  (let ((let432 _40))
  (let ((let433 _7))
  (let ((let434 (ff.add let433 let432 let3)))
  (let ((let435 (ff.mul let434 let434)))
  (let ((let436 (= let435 let382)))
  (let ((let437 (ff.mul let432 let3)))
  (let ((let438 _13))
  (let ((let439 _12))
  (let ((let440 (ff.add let439 let438 let331 let437)))
  (let ((let441 (ff.add let439 let438)))
  (let ((let442 (ff.mul let331 let441)))
  (let ((let443 (= let442 let440)))
  (let ((let444 (ff.mul let433 let3)))
  (let ((let445 _0))
  (let ((let446 (ff.mul let445 let3)))
  (let ((let447 (ff.add let446 let444 let18)))
  (let ((let448 (ff.mul let447 let447)))
  (let ((let449 (= let448 let331)))
  (let ((let450 (ff.mul let361 let3)))
  (let ((let451 (ff.add let342 let315 let450 let18)))
  (let ((let452 (ff.mul let317 let342)))
  (let ((let453 (= let452 let451)))
  (let ((let454 (ff.add let356 let403)))
  (let ((let455 (ff.mul let454 let454)))
  (let ((let456 (= let455 let314)))
  (let ((let457 (ff.mul let403 let3)))
  (let ((let458 _32))
  (let ((let459 _2))
  (let ((let460 (ff.add let459 let458 let457)))
  (let ((let461 (ff.mul let458 let459)))
  (let ((let462 (= let461 let460)))
  (let ((let463 (ff.mul let458 let3)))
  (let ((let464 _31))
  (let ((let465 (ff.add let323 let464 let463)))
  (let ((let466 (ff.mul let464 let323)))
  (let ((let467 (= let466 let465)))
  (let ((let468 (ff.mul let464 let3)))
  (let ((let469 (ff.mul let417 let74)))
  (let ((let470 (ff.mul let419 let74)))
  (let ((let471 (ff.add let470 let469 let468)))
  (let ((let472 (ff.add let419 let417)))
  (let ((let473 (ff.mul let472 let472)))
  (let ((let474 (= let473 let471)))
  (let ((let475 (ff.mul let323 let3)))
  (let ((let476 (ff.add let475 let18)))
  (let ((let477 (ff.mul let476 let371)))
  (let ((let478 (= let477 let417)))
  (let ((let479 _6))
  (let ((let480 (ff.mul let323 let479)))
  (let ((let481 (= let480 let419)))
  (let ((let482 _23))
  (let ((let483 (ff.add let445 let482 let475)))
  (let ((let484 (ff.mul let482 let445)))
  (let ((let485 (= let484 let483)))
  (let ((let486 (ff.mul let482 let3)))
  (let ((let487 (ff.add let412 let411 let410 let486)))
  (let ((let488 (ff.add let411 let410)))
  (let ((let489 (ff.mul let488 let412)))
  (let ((let490 (= let489 let487)))
  (let ((let491 (ff.mul let410 let3)))
  (let ((let492 (ff.mul let411 let3)))
  (let ((let493 (ff.add let412 let492 let491 let343 let18)))
  (let ((let494 (ff.add let492 let491 let18)))
  (let ((let495 (ff.mul let494 let412)))
  (let ((let496 (= let495 let493)))
  (let ((let497 (ff.mul let358 let300)))
  (let ((let498 (= let497 let410)))
  (let ((let499 (ff.mul let300 let441)))
  (let ((let500 (= let499 let411)))
  (let ((let501 (ff.add let444 let439 let438 let356 let18)))
  (let ((let502 (ff.add let444 let18)))
  (let ((let503 (ff.mul let441 let502)))
  (let ((let504 (= let503 let501)))
  (let ((let505 (ff.add let413 let18)))
  (let ((let506 (ff.mul let505 let459)))
  (let ((let507 (= let506 let438)))
  (let ((let508 (ff.mul let412 let479)))
  (let ((let509 (= let508 let439)))
  (let ((let510 (ff.mul let479 let3)))
  (let ((let511 (ff.add let371 let510)))
  (let ((let512 (ff.mul let511 let511)))
  (let ((let513 (= let512 let433)))
  (let ((let514 _5))
  (let ((let515 (ff.mul let514 let445)))
  (let ((let516 (= let515 let479)))
  (let ((let517 _4))
  (let ((let518 (ff.mul let517 let459)))
  (let ((let519 (= let518 let514)))
  (let ((let520 (ff.mul let371 let445)))
  (let ((let521 (= let520 let517)))
  (let ((let522 (ff.mul let412 let412)))
  (let ((let523 (= let522 let412)))
  (let ((let524 (ff.mul let459 let459)))
  (let ((let525 (= let524 let459)))
  (let ((let526 (ff.mul let371 let371)))
  (let ((let527 (= let526 let371)))
  (let ((let528 (ff.mul let445 let445)))
  (let ((let529 (= let528 let445)))
  (let ((let530 (and let529 let527 let525 let523 let521 let519 let516 let513 let509 let507 let504 let500 let498 let496 let490 let485 let481 let478 let474 let467 let462 let456 let453 let449 let443 let436 let431 let428 let424 let416 let409 let407 let402 let397 let392 let387 let379 let374 let369 let367 let364 let360 let354 let348 let338 let333 let327 let319 let311 let303 let297 let291 let283 let277 let269)))
  (let ((let531 (= let267 let0)))
  (let ((let532 (not let531)))
  (let ((let533 (= let445 let181)))
  (let ((let534 (= let412 let148)))
  (let ((let535 (= let371 let107)))
  (let ((let536 (= let459 let195)))
  (let ((let537 (and let536 let535 let534 let533)))
  (let ((let538 (and let537 let532 let530 let266)))
  let538
)))))))))))))))))))))))))))))))))))))))))))))))))))))))))))))))))))))))))))))))))))))))))))))))))))))))))))))))))))))))))))))))))))))))))))))))))))))))))))))))))))))))))))))))))))))))))))))))))))))))))))))))))))))))))))))))))))))))))))))))))))))))))))))))))))))))))))))))))))))))))))))))))))))))))))))))))))))))))))))))))))))))))))))))))))))))))))))))))))))))))))))))))))))))))))))))))))))))))))))))))))))))))))))))))))))))))))))))))))))))))))))))))))))))))))))))))))))))))))))))))))))))))))))))))))))))))))))))))))))))))))))))))))))))))))
)
(check-sat)
